Translating instance to solver...

Set parameter TimeLimit to value 28800
Gurobi Optimizer version 11.0.2 build v11.0.2rc0 (linux64 - "Ubuntu 22.04.4 LTS")

CPU model: Intel(R) Xeon(R) Gold 5120 CPU @ 2.20GHz, instruction set [SSE2|AVX|AVX2|AVX512]
Thread count: 28 physical cores, 56 logical processors, using up to 28 threads

Academic license 2463511 - for non-commercial use only - registered to lu___@cefet-rj.br
Optimize a model with 113275 rows, 53993 columns and 256388 nonzeros
Model fingerprint: 0x35e9334c
Variable types: 1 continuous, 53992 integer (53920 binary)
Coefficient statistics:
  Matrix range     [1e+00, 1e+05]
  Objective range  [3e-01, 8e-01]
  Bounds range     [1e+00, 7e+01]
  RHS range        [1e+00, 1e+02]
Presolve removed 92688 rows and 45610 columns
Presolve time: 1.62s
Presolved: 20587 rows, 8383 columns, 56205 nonzeros
Variable types: 0 continuous, 8383 integer (8312 binary)
Found heuristic solution: objective 52.9123700
Found heuristic solution: objective 52.4623700

Root relaxation: objective 2.438791e+00, 1467 iterations, 0.09 seconds (0.12 work units)

    Nodes    |    Current Node    |     Objective Bounds      |     Work
 Expl Unexpl |  Obj  Depth IntInf | Incumbent    BestBd   Gap | It/Node Time

     0     0    2.43879    0  212   52.46237    2.43879  95.4%     -    2s
H    0     0                       4.0853460    2.43879  40.3%     -    3s
     0     0    2.46435    0  141    4.08535    2.46435  39.7%     -    4s
H    0     0                       3.3294550    2.50151  24.9%     -    6s
     0     0    2.52553    0  129    3.32946    2.52553  24.1%     -    6s
     0     0    2.57356    0  396    3.32946    2.57356  22.7%     -    7s
     0     0    2.61064    0  393    3.32946    2.61064  21.6%     -    7s
     0     0    2.63474    0  518    3.32946    2.63474  20.9%     -    8s
     0     0    2.64660    0  331    3.32946    2.64660  20.5%     -    8s
     0     0    2.70762    0  519    3.32946    2.70762  18.7%     -    9s
     0     0    2.70762    0  480    3.32946    2.70762  18.7%     -    9s
     0     0    2.70762    0  186    3.32946    2.70762  18.7%     -   10s
     0     0    2.70762    0  668    3.32946    2.70762  18.7%     -   12s
     0     0    2.70762    0  723    3.32946    2.70762  18.7%     -   13s
     0     0    2.70762    0  736    3.32946    2.70762  18.7%     -   13s
     0     0    2.70762    0  658    3.32946    2.70762  18.7%     -   13s
     0     0    2.70762    0  653    3.32946    2.70762  18.7%     -   13s
     0     0    2.75356    0  716    3.32946    2.75356  17.3%     -   15s
     0     0    2.76958    0  774    3.32946    2.76958  16.8%     -   15s
     0     0    2.77055    0  746    3.32946    2.77055  16.8%     -   15s
     0     0    2.80108    0 1354    3.32946    2.80108  15.9%     -   17s
     0     0    2.80298    0 1262    3.32946    2.80298  15.8%     -   18s
     0     2    2.80298    0 1262    3.32946    2.80298  15.8%     -   19s
     1     5    2.80298    1 1293    3.32946    2.80298  15.8%  3614   21s
    31    60    2.80298    5  446    3.32946    2.80298  15.8%  1252   25s
H   44    60                       3.1853460    2.80298  12.0%   977   25s
   575   321    2.92837   17  145    3.18535    2.80298  12.0%   257   30s
  1769   508     cutoff   16         3.18535    2.80298  12.0%   201   35s
  3215   322    3.12161   12  299    3.18535    2.92991  8.02%   200   40s

Cutting planes:
  Learned: 335
  Gomory: 1
  Implied bound: 349
  Clique: 1
  MIR: 95
  Inf proof: 1
  Zero half: 8
  RLT: 222
  Relax-and-lift: 72
  BQP: 368

Explored 4046 nodes (790301 simplex iterations) in 41.89 seconds (41.96 work units)
Thread count was 28 (of 56 available processors)

Solution count 5: 3.18535 3.32946 4.08535 ... 52.9124

Optimal solution found (tolerance 1.00e-04)
Best objective 3.185346000000e+00, best bound 3.185346000000e+00, gap 0.0000%

Solver Wallclock Time (for this epsilon): 41.89608097076416 s
Python wallclock Time (for this epsilon): 50.26953434944153 s


Total Elapsed Time (since program call): 1583.8844985961914 s

Results:

I = 3.185346 mA
C = 100.0 points
C ~= 40.0 km^2

Minimum Epsilon for this instance = 10
Maximum Epsilon for this instance = 100

Current Epsilon = 100


Preprocessing Time (for this epsilon): 0.011875629425048828 s


Updated solution vectors:
sol_I = [-1.223564,-1.223564,-1.6735639999999998,-1.6735639999999998,-1.6735639999999998,-1.6735639999999998,-2.123564,-2.123564,-2.5735639999999997,-3.185346]
sol_C = [24.0,20.0,39.0,53.0,58.0,61.0,79.0,80.0,91.0,100.0]
sol_eps = [10,20,30,40,50,60,70,80,90,100]
sol_gap = [0.0,0.0,0.0,0.0,2.924999964459829e-07,1.7999999935014444e-07,0.0,0.0,0.0,0.0]
